centroides = 0;
nNurses = 165;
hours = 62;
demand = [38 6 28 25 14 7 8 36 35 33 20 39 39 23 29 11 1 20 18 19 21 3 26 21 27 35 12 30 18 1 22 27 21 3 0 39 40 37 24 41 5 19 26 8 34 16 34 10 27 24 23 12 11 38 1 34 15 21 19 7 20 20];
minHours = 1;
maxHours = 15;
maxConsec = 11;
maxPresence = 24;